language Essence 1.3

letting bot_end be [639, 1, 93, 658, 59, 642, 119, 155, 478, 635, 41, 51, 572, 0, 13, 643; int(1..16)]
letting bot_start be [180, 435, 658, 272, 444, 194, 560, 635, 60, 175, 533, 467, 80, 476, 619, 59; int(1..16)]
letting buffer_col be 2
letting buffer_row be 2
letting corridor_size be 1
letting n_shelves_col be 2
letting n_shelves_row be 31
letting shelf_col_size be 2
letting shelf_row_size be 1
